101 656
1 69 27 101 28 53 58 40 26 12 80 68 79 78 34 35 65 71 66 20 51 9 81 33 50 76 77 3 29 24 54 55 25 4 39 67 23 56 75 72 21 73 74 41 22 2 57 15 43 42 14 38 86 44 16 61 85 91 100 98 37 92 59 93 99 96 95 97 87 13 94 6 89 52 18 7 82 48 8 83 60 5 84 17 45 46 47 36 49 64 11 19 62 88 31 10 63 90 32 30 70 
